ITEM: TIMESTEP
0
ITEM: NUMBER OF ATOMS
16
ITEM: BOX BOUNDS xy xz yz pp pp pp
0.0 7.3 0.5
-0.3 6.6 0.2
0.0 6.6 -0.3
ITEM: ATOMS id type element xs ys zs pe
1 1 Fe 0.000000 0.000000 0.000000 -4.280
2 1 Fe 0.250000 0.250000 0.250000 -4.280
3 1 Fe 0.000000 0.000000 0.500000 -4.280
4 1 Fe 0.250000 0.250000 0.750000 -4.280
5 1 Fe 0.000000 0.500000 0.000000 -4.280
6 1 Fe 0.250000 0.750000 0.250000 -4.280
7 1 Fe 0.000000 0.500000 0.500000 -4.280
8 1 Fe 0.250000 0.750000 0.750000 -4.280
9 1 Fe 0.500000 0.000000 0.000000 -4.280
10 1 Fe 0.750000 0.250000 0.250000 -4.280
11 1 Fe 0.500000 0.000000 0.500000 -4.280
12 1 Fe 0.750000 0.250000 0.750000 -4.280
13 1 Fe 0.500000 0.500000 0.000000 -4.280
14 1 Fe 0.750000 0.750000 0.250000 -4.280
15 1 Fe 0.500000 0.500000 0.500000 -4.280
16 1 Fe 0.750000 0.750000 0.750000 -4.280
ITEM: TIMESTEP
100
ITEM: NUMBER OF ATOMS
16
ITEM: BOX BOUNDS xy xz yz pp pp pp
0.0 7.3 0.5
-0.3 6.6 0.2
0.0 6.6 -0.3
ITEM: ATOMS id type element xs ys zs pe
1 1 Fe 0.000000 0.000000 0.000000 -4.270
2 1 Fe 0.250000 0.250000 0.250000 -4.250
3 1 Fe 0.000000 0.000000 0.500000 -4.270
4 1 Fe 0.250000 0.250000 0.750000 -4.260
5 1 Fe 0.000000 0.500000 0.000000 -4.270
6 1 Fe 0.250000 0.750000 0.250000 -4.260
7 1 Fe 0.000000 0.500000 0.500000 -4.250
8 1 Fe 0.250000 0.750000 0.750000 -4.250
9 1 Fe 0.500000 0.000000 0.000000 -4.270
10 1 Fe 0.750000 0.250000 0.250000 -4.250
11 1 Fe 0.500000 0.000000 0.500000 -4.260
12 1 Fe 0.750000 0.250000 0.750000 -4.250
13 1 Fe 0.500000 0.500000 0.000000 -4.260
14 1 Fe 0.750000 0.750000 0.250000 -4.250
15 1 Fe 0.500000 0.500000 0.500000 -4.120
16 1 Fe 0.785000 0.720000 0.765000 -3.610
